\ Model CornScheduler_v8_copy
\ LP format - for model browsing. Use MPS format to capture full model detail.
Minimize
 
Subject To
 R1: C175 + C176 + C177 + C178 + C179 + C180 + C181 = 1
 R27: C189 + C190 + C191 + C192 + C193 + C194 + C195 = 1
 R53: C203 + C204 + C205 + C206 + C207 + C208 + C209 = 1
 R66: C210 + C211 + C212 + C213 + C214 + C215 + C216 = 1
 R92: C224 + C225 + C226 + C227 + C228 + C229 + C230 = 1
 R105: C231 + C232 + C233 + C234 + C235 + C236 + C237 = 1
 R118: C238 + C239 + C240 + C241 + C242 + C243 + C244 = 1
 R131: C245 + C246 + C247 + C248 + C249 + C250 + C251 = 1
 R144: C252 + C253 + C254 + C255 + C256 + C257 + C258 = 1
 R157: C259 + C260 + C261 + C262 + C263 + C264 + C265 = 1
 R170: C266 + C267 + C268 + C269 + C270 + C271 + C272 = 1
 R183: C273 + C274 + C275 + C276 + C277 + C278 + C279 = 1
 R209: C287 + C288 + C289 + C290 + C291 + C292 + C293 = 1
 R222: C294 + C295 + C296 + C297 + C298 + C299 + C300 = 1
 R235: C301 + C302 + C303 + C304 + C305 + C306 + C307 = 1
 R248: C308 + C309 + C310 + C311 + C312 + C313 + C314 = 1
 R261: C315 + C316 + C317 + C318 + C319 + C320 + C321 = 1
 R274: C322 + C323 + C324 + C325 + C326 + C327 + C328 = 1
 R287: C329 + C330 + C331 + C332 + C333 + C334 + C335 = 1
 R300: C336 + C337 + C338 + C339 + C340 + C341 + C342 = 1
 R339: 87.22774858383657 C175 + 54.75251357802613 C182
   + 101.8332884085435 C189 + 108.7902551826313 C196 + 40 C203
   + 50.01471682297505 C210 + 82.03470514648959 C217
   + 70.32922150437093 C224 + 78.0206287625772 C231
   + 58.40605543433634 C238 + 106.5012298403713 C245
   + 102.8055155561565 C252 + 80.2944751514944 C259
   + 116.0870192003857 C266 + 92.29987303719844 C273
   + 58.28003379439069 C280 + 89.18844028879477 C287
   + 56.30824120555002 C294 + 106.466149408193 C301
   + 77.12960203277937 C308 + 73.60481903316479 C315
   + 61.98788978146701 C322 + 120 C329 + 74.38272734463212 C336
   + 67.65131909431329 C343 <= 224
 R341: 87.22774858383657 C176 + 54.75251357802613 C183
   + 101.8332884085435 C190 + 108.7902551826313 C197 + 40 C204
   + 50.01471682297505 C211 + 82.03470514648959 C218
   + 70.32922150437093 C225 + 78.0206287625772 C232
   + 58.40605543433634 C239 + 106.5012298403713 C246
   + 102.8055155561565 C253 + 80.2944751514944 C260
   + 116.0870192003857 C267 + 92.29987303719844 C274
   + 58.28003379439069 C281 + 89.18844028879477 C288
   + 56.30824120555002 C295 + 106.466149408193 C302
   + 77.12960203277937 C309 + 73.60481903316479 C316
   + 61.98788978146701 C323 + 120 C330 + 74.38272734463212 C337
   + 67.65131909431329 C344 <= 360
 R343: 87.22774858383657 C177 + 54.75251357802613 C184
   + 101.8332884085435 C191 + 108.7902551826313 C198 + 40 C205
   + 50.01471682297505 C212 + 82.03470514648959 C219
   + 70.32922150437093 C226 + 78.0206287625772 C233
   + 58.40605543433634 C240 + 106.5012298403713 C247
   + 102.8055155561565 C254 + 80.2944751514944 C261
   + 116.0870192003857 C268 + 92.29987303719844 C275
   + 58.28003379439069 C282 + 89.18844028879477 C289
   + 56.30824120555002 C296 + 106.466149408193 C303
   + 77.12960203277937 C310 + 73.60481903316479 C317
   + 61.98788978146701 C324 + 120 C331 + 74.38272734463212 C338
   + 67.65131909431329 C345 <= 154
 R345: 87.22774858383657 C178 + 54.75251357802613 C185
   + 101.8332884085435 C192 + 108.7902551826313 C199 + 40 C206
   + 50.01471682297505 C213 + 82.03470514648959 C220
   + 70.32922150437093 C227 + 78.0206287625772 C234
   + 58.40605543433634 C241 + 106.5012298403713 C248
   + 102.8055155561565 C255 + 80.2944751514944 C262
   + 116.0870192003857 C269 + 92.29987303719844 C276
   + 58.28003379439069 C283 + 89.18844028879477 C290
   + 56.30824120555002 C297 + 106.466149408193 C304
   + 77.12960203277937 C311 + 73.60481903316479 C318
   + 61.98788978146701 C325 + 120 C332 + 74.38272734463212 C339
   + 67.65131909431329 C346 <= 24
 R347: 87.22774858383657 C179 + 54.75251357802613 C186
   + 101.8332884085435 C193 + 108.7902551826313 C200 + 40 C207
   + 50.01471682297505 C214 + 82.03470514648959 C221
   + 70.32922150437093 C228 + 78.0206287625772 C235
   + 58.40605543433634 C242 + 106.5012298403713 C249
   + 102.8055155561565 C256 + 80.2944751514944 C263
   + 116.0870192003857 C270 + 92.29987303719844 C277
   + 58.28003379439069 C284 + 89.18844028879477 C291
   + 56.30824120555002 C298 + 106.466149408193 C305
   + 77.12960203277937 C312 + 73.60481903316479 C319
   + 61.98788978146701 C326 + 120 C333 + 74.38272734463212 C340
   + 67.65131909431329 C347 <= 360
 R349: 87.22774858383657 C180 + 54.75251357802613 C187
   + 101.8332884085435 C194 + 108.7902551826313 C201 + 40 C208
   + 50.01471682297505 C215 + 82.03470514648959 C222
   + 70.32922150437093 C229 + 78.0206287625772 C236
   + 58.40605543433634 C243 + 106.5012298403713 C250
   + 102.8055155561565 C257 + 80.2944751514944 C264
   + 116.0870192003857 C271 + 92.29987303719844 C278
   + 58.28003379439069 C285 + 89.18844028879477 C292
   + 56.30824120555002 C299 + 106.466149408193 C306
   + 77.12960203277937 C313 + 73.60481903316479 C320
   + 61.98788978146701 C327 + 120 C334 + 74.38272734463212 C341
   + 67.65131909431329 C348 <= 154
 R351: 87.22774858383657 C181 + 54.75251357802613 C188
   + 101.8332884085435 C195 + 108.7902551826313 C202 + 40 C209
   + 50.01471682297505 C216 + 82.03470514648959 C223
   + 70.32922150437093 C230 + 78.0206287625772 C237
   + 58.40605543433634 C244 + 106.5012298403713 C251
   + 102.8055155561565 C258 + 80.2944751514944 C265
   + 116.0870192003857 C272 + 92.29987303719844 C279
   + 58.28003379439069 C286 + 89.18844028879477 C293
   + 56.30824120555002 C300 + 106.466149408193 C307
   + 77.12960203277937 C314 + 73.60481903316479 C321
   + 61.98788978146701 C328 + 120 C335 + 74.38272734463212 C342
   + 67.65131909431329 C349 <= 360
Bounds
Binaries
 C175 C176 C177 C178 C179 C180 C181 C182 C183 C184 C185 C186 C187 C188 C189
 C190 C191 C192 C193 C194 C195 C196 C197 C198 C199 C200 C201 C202 C203 C204
 C205 C206 C207 C208 C209 C210 C211 C212 C213 C214 C215 C216 C217 C218 C219
 C220 C221 C222 C223 C224 C225 C226 C227 C228 C229 C230 C231 C232 C233 C234
 C235 C236 C237 C238 C239 C240 C241 C242 C243 C244 C245 C246 C247 C248 C249
 C250 C251 C252 C253 C254 C255 C256 C257 C258 C259 C260 C261 C262 C263 C264
 C265 C266 C267 C268 C269 C270 C271 C272 C273 C274 C275 C276 C277 C278 C279
 C280 C281 C282 C283 C284 C285 C286 C287 C288 C289 C290 C291 C292 C293 C294
 C295 C296 C297 C298 C299 C300 C301 C302 C303 C304 C305 C306 C307 C308 C309
 C310 C311 C312 C313 C314 C315 C316 C317 C318 C319 C320 C321 C322 C323 C324
 C325 C326 C327 C328 C329 C330 C331 C332 C333 C334 C335 C336 C337 C338 C339
 C340 C341 C342 C343 C344 C345 C346 C347 C348 C349
End
